(set-logic QF_S)
(declare-fun var0 () String)
(assert (str.in.re var0 (re.++ (re.* (re.+ (str.to.re "0"))) (re.++ (re.+ (re.+ (str.to.re "11"))) (re.++ (re.union (re.* (str.to.re "22")) (re.* (str.to.re "33"))) (re.++ (re.+ (re.union (str.to.re "44") (str.to.re "5"))) (re.++ (re.+ (re.* (str.to.re "66"))) (re.++ (re.union (re.union (str.to.re "77") (str.to.re "888")) (re.* (str.to.re "999"))) (re.++ (re.+ (re.+ (str.to.re "aa"))) (re.++ (re.+ (re.* (str.to.re "bbb"))) (re.++ (re.* (re.* (str.to.re "c"))) (re.++ (re.+ (re.+ (str.to.re "d"))) (re.++ (re.+ (re.union (str.to.re "ee") (str.to.re "f"))) (re.++ (re.* (re.* (str.to.re "ggg"))) (re.++ (re.union (re.union (str.to.re "hh") (str.to.re "ii")) (re.+ (str.to.re "jj"))) (re.++ (re.union (re.+ (str.to.re "kkk")) (re.* (str.to.re "lll"))) (re.++ (re.* (re.* (str.to.re "mmm"))) (re.++ (re.union (re.+ (str.to.re "nnn")) (re.union (str.to.re "ooo") (str.to.re "ppp"))) (re.++ (re.+ (re.+ (str.to.re "q"))) (re.++ (re.union (re.union (str.to.re "rr") (str.to.re "ss")) (re.+ (str.to.re "tt"))) (re.++ (re.union (re.* (str.to.re "uuu")) (re.+ (str.to.re "v"))) (re.++ (re.union (re.union (str.to.re "www") (str.to.re "x")) (re.+ (str.to.re "y"))) (re.++ (re.* (re.union (str.to.re "zz") (str.to.re "AA"))) (re.++ (re.union (re.union (str.to.re "B") (str.to.re "C")) (re.* (str.to.re "D"))) (re.++ (re.* (re.* (str.to.re "EE"))) (re.++ (re.+ (re.+ (str.to.re "FFF"))) (re.++ (re.* (re.* (str.to.re "GG"))) (re.++ (re.union (re.union (str.to.re "HHH") (str.to.re "I")) (re.* (str.to.re "JJ"))) (re.++ (re.union (re.union (str.to.re "K") (str.to.re "LLL")) (re.union (str.to.re "MM") (str.to.re "NN"))) (re.++ (re.+ (re.union (str.to.re "OOO") (str.to.re "PP"))) (re.++ (re.+ (re.union (str.to.re "QQQ") (str.to.re "RRR"))) (re.++ (re.+ (re.* (str.to.re "SS"))) (re.++ (re.+ (re.* (str.to.re "TTT"))) (re.++ (re.union (re.+ (str.to.re "U")) (re.union (str.to.re "VV") (str.to.re "WW"))) (re.++ (re.union (re.+ (str.to.re "XX")) (re.* (str.to.re "YYY"))) (re.++ (re.* (re.+ (str.to.re "ZZZ"))) (re.++ (re.+ (re.union (str.to.re "!") (str.to.re """"""))) (re.union (re.union (str.to.re "###") (str.to.re "$$$")) (re.+ (str.to.re "%"))))))))))))))))))))))))))))))))))))))))
(check-sat)